
  27    0


   0  14 2 3 4 5 6 7 8 9 10 11 12 24 25 26 
  10   6 23 19 16 15 14 13 
   4   5 22 21 15 14 13 
   6   4 19 18 15 14 
   8   3 20 17 15 
   4   3 16 14 13 
   8   2 14 13 
   5   2 18 13 
  10   2 16 15 
   9   1 17 
   6   1 14 
   6   1 13 
   4   1 27
   4   1 27
   3   1 27
   3   1 27
   1   1 27
   3   1 27
  10   1 27
   2   1 27
   2   1 27
   5   1 27
   1   1 27
   9   1 27
   5   1 27
   8   1 27
   0   0 
